%%%mzn-stat: initTime=0.007846802
%%%mzn-stat: objective=924
%%%mzn-stat: nodes=11740
%%%mzn-stat: restarts=5
%%%mzn-stat: peakDepth=532
%%%mzn-stat: solveTime=1.5674485790000001
%%%mzn-stat: variables=1153
%%%mzn-stat: propagators=843
%%%mzn-stat: failures=10258
%%%mzn-stat: propagations=637924
%%%mzn-stat: nogoods=10258
%%%mzn-stat: AverageConflictSize=18.420647299668552
%%%mzn-stat: NumUnitNogoodsLearned=291
%%%mzn-stat: AverageLearnedNogoodLength=30.031195164749462
%%%mzn-stat: AverageBacktrackAmount=0
%%%mzn-stat: AverageLbd=14.127022811464222
%%%mzn-stat-end
maxleg = 924;
succ = array1d(1..50,[27, 24, 6, 44, 4, 47, 14, 49, 22, 45, 30, 34, 23, 40, 10, 25, 15, 46, 12, 38, 20, 2, 8, 17, 5, 37, 9, 32, 19, 26, 3, 21, 36, 11, 1, 43, 16, 13, 35, 33, 39, 48, 50, 18, 28, 41, 42, 29, 7, 31]);
% time elapsed: 8.81 s
----------
%%%mzn-stat: initTime=0.007846802
%%%mzn-stat: objective=364
%%%mzn-stat: nodes=14416
%%%mzn-stat: restarts=8
%%%mzn-stat: peakDepth=542
%%%mzn-stat: solveTime=1.822963473
%%%mzn-stat: variables=1153
%%%mzn-stat: propagators=843
%%%mzn-stat: failures=11974
%%%mzn-stat: propagations=712907
%%%mzn-stat: nogoods=11974
%%%mzn-stat: AverageConflictSize=18.582345081008853
%%%mzn-stat: NumUnitNogoodsLearned=291
%%%mzn-stat: AverageLearnedNogoodLength=29.819692667446134
%%%mzn-stat: AverageBacktrackAmount=0
%%%mzn-stat: AverageLbd=14.315600467679973
%%%mzn-stat-end
maxleg = 364;
succ = array1d(1..50,[27, 42, 6, 44, 15, 47, 14, 49, 22, 45, 30, 34, 23, 17, 10, 25, 36, 46, 29, 38, 20, 37, 8, 2, 5, 39, 9, 32, 12, 26, 50, 21, 24, 11, 1, 43, 16, 13, 4, 33, 35, 48, 40, 18, 28, 41, 19, 31, 7, 3]);
% time elapsed: 9.05 s
----------
%%%mzn-stat: initTime=0.007846802
%%%mzn-stat: objective=356
%%%mzn-stat: nodes=15096
%%%mzn-stat: restarts=9
%%%mzn-stat: peakDepth=563
%%%mzn-stat: solveTime=1.844603931
%%%mzn-stat: variables=1153
%%%mzn-stat: propagators=843
%%%mzn-stat: failures=12018
%%%mzn-stat: propagations=717973
%%%mzn-stat: nogoods=12018
%%%mzn-stat: AverageConflictSize=18.532118488933268
%%%mzn-stat: NumUnitNogoodsLearned=291
%%%mzn-stat: AverageLearnedNogoodLength=30.047678482276584
%%%mzn-stat: AverageBacktrackAmount=0
%%%mzn-stat: AverageLbd=14.321767348976536
%%%mzn-stat-end
maxleg = 356;
succ = array1d(1..50,[27, 42, 6, 44, 15, 47, 14, 49, 29, 45, 30, 34, 23, 17, 10, 25, 36, 46, 1, 38, 20, 37, 8, 2, 5, 39, 9, 32, 12, 26, 50, 21, 24, 11, 22, 43, 16, 13, 4, 33, 35, 48, 40, 18, 28, 41, 19, 31, 7, 3]);
% time elapsed: 9.08 s
----------
%%%mzn-stat: initTime=0.007846802
%%%mzn-stat: objective=292
%%%mzn-stat: nodes=15581
%%%mzn-stat: restarts=9
%%%mzn-stat: peakDepth=563
%%%mzn-stat: solveTime=1.849480075
%%%mzn-stat: variables=1153
%%%mzn-stat: propagators=843
%%%mzn-stat: failures=12019
%%%mzn-stat: propagations=719739
%%%mzn-stat: nogoods=12019
%%%mzn-stat: AverageConflictSize=18.530742990265413
%%%mzn-stat: NumUnitNogoodsLearned=291
%%%mzn-stat: AverageLearnedNogoodLength=30.046093684998752
%%%mzn-stat: AverageBacktrackAmount=0
%%%mzn-stat: AverageLbd=14.32107496463932
%%%mzn-stat-end
maxleg = 292;
succ = array1d(1..50,[27, 42, 6, 45, 25, 47, 14, 49, 29, 28, 30, 34, 23, 17, 10, 41, 36, 44, 1, 38, 20, 37, 8, 2, 39, 46, 9, 32, 12, 26, 50, 21, 24, 11, 22, 43, 16, 13, 4, 33, 18, 31, 40, 5, 15, 35, 48, 19, 7, 3]);
% time elapsed: 9.08 s
----------
==========
% time elapsed: 9.08 s
%%%mzn-stat: initTime=0.007846802
%%%mzn-stat: objective=292
%%%mzn-stat: nodes=15581
%%%mzn-stat: restarts=9
%%%mzn-stat: peakDepth=563
%%%mzn-stat: solveTime=1.84948336
%%%mzn-stat: variables=1153
%%%mzn-stat: propagators=843
%%%mzn-stat: failures=12019
%%%mzn-stat: propagations=719739
%%%mzn-stat: nogoods=12019
%%%mzn-stat: AverageConflictSize=18.530742990265413
%%%mzn-stat: NumUnitNogoodsLearned=291
%%%mzn-stat: AverageLearnedNogoodLength=30.046093684998752
%%%mzn-stat: AverageBacktrackAmount=0
%%%mzn-stat: AverageLbd=14.32107496463932
%%%mzn-stat-end
